webassembly/ejemplos_dzn/14/folder14_json_86.dzn
TERM = { '.', 's(2)', 's(5)', 's(4)', 'local_0', 'local_1', 's(6)', 's(1)', 's(0)', 's(7)', 's(3)', 'in_0'};
null = '.';
s = 14;
n = 10;
ndeps = 5;
max_registers_sz = 4;
NR = 1;
registers = [|'local_1', 's(6)'|];
dependencies = [|'i32.load16_s_0', 'call[function_index(0)]_2', |'call[function_index(0)]_2', 'i32.load16_s_4', |'i32.store16_5', 'i32.load16_u_9', |'i32.store16_5', 'i32.load16_s_12', |'i32.load16_s_4', 'i32.store16_5'|];
GET_ENUM = { GET1, GET2, GET3, GET4, GET5};
SET_ENUM = { SET1, SET2, SET3, SET4, SET5};
TEE_ENUM = { TEE1, TEE2, TEE3, TEE4, TEE5};
N = 8;
OP = { 'i32.const_0', 'call[function_index(0)]_2', 'i32.load16_s_0', 'i32.load16_s_4', 'i32.store16_5', 'i32.load16_u_9', 'i32.load16_s_12', 'local.get_0' };
in_ops = [0, 2, 1, 1, 2, 1, 1, 0 ];
out_ops = [1, 3, 1, 1, 0, 1, 1, 1 ];
in1 = ['.', 'local_0', 'in_0', 's(3)', 's(4)', 'local_0', 's(5)', '.' ];
in2 = ['.', 's(0)', '.', '.', 's(2)', '.', '.', '.' ];
in3 = ['.', '.', '.', '.', '.', '.', '.', '.' ];
out1 = ['s(7)', 's(3)', 's(0)', 's(4)', '.', 's(5)', 's(6)', 'local_0' ];
out2 = ['.', 's(2)', '.', '.', '.', '.', '.', '.' ];
out3 = ['.', 's(1)', '.', '.', '.', '.', '.', '.' ];
comm = [false, false, false, false, false, false, false, false ];
gas = [1, 1, 1, 1, 1, 1, 1, 1 ];
sz = [1, 1, 1, 1, 1, 1, 1, 1 ];
stor = [false, true, false, false, true, false, false, false ];
lb = [ 1, 1, 1, 1, 1, 1, 1, 1 ];
ub = [ 14, 14, 14, 14, 14, 14, 14, 14 ];
startstack = [ 'in_0', null, null, null, null, null, null, null, null, null ];
endstack = [ 's(7)', 's(3)', 's(1)', null, null, null, null, null, null, null ];
